sat
(
  (define-fun J () String
    "")
  (define-fun N () String
    "aa")
  (define-fun M () String
    "")
  (define-fun L () String
    "aaaaaaaa")
  (define-fun H () String
    "aaaaaaaaaaaaaa")
  (define-fun K () String
    "")
)
